11
-1 17 90 37 3 100 9 69 25 38 71 
17 -1 79 64 1 13 97 62 88 85 65 
90 79 -1 51 23 71 20 45 89 57 71 
37 64 51 -1 13 71 7 49 31 67 59 
3 1 23 13 -1 77 10 99 89 47 48 
100 13 71 71 77 -1 39 86 85 97 68 
9 97 20 7 10 39 -1 18 6 40 13 
69 62 45 49 99 86 18 -1 53 40 52 
25 88 89 31 89 85 6 53 -1 20 92 
38 85 57 67 47 97 40 40 20 -1 87 
71 65 71 59 48 68 13 52 92 87 -1 
